14 6
15 301 304 357 280 52 73 7 111 80 241 294 96 430
0 38 5 309 143 497 318 347 76 365 253 70 66 212 225
325 0 309 219 1 294 315 256 11 407 94 18 293 101 442
284 200 0 207 3 76 346 241 443 472 187 372 377 296 104
5 165 102 0 137 261 454 158 230 223 431 10 49 398 2
15 70 247 496 0 31 99 195 326 402 143 301 124 239 155
78 96 335 145 54 0 362 402 61 184 468 335 337 124 317
187 100 96 494 482 371 0 217 181 160 412 83 310 447 145
111 129 250 341 334 15 379 0 358 318 464 303 184 298 269
50 86 491 105 422 427 70 348 0 120 218 338 229 354 111
119 377 348 490 241 414 10 159 7 0 500 264 273 127 264
249 199 470 30 479 173 242 229 235 335 0 336 282 305 105
164 37 342 427 68 410 442 332 137 164 334 0 251 273 276
450 497 151 485 313 158 493 243 73 298 167 258 0 211 480
281 353 16 275 478 188 250 417 449 180 98 230 393 0 330
426 69 222 36 185 382 408 351 46 264 74 116 86 294 0